NAME          RELMASTER
ROWS
 N  ZFZF9999
 G  A0000001
 G  A0000002
 L  F0000001
 L  F0000002
 G  D0000001
 G  D0000002
 G  D0000003
COLUMNS
    X0000001  ZFZF9999   4.00000E+00
    X0000001  A0000001   1.00000E+00
    X0000001  F0000001  -1.00000E+00
    X0000002  ZFZF9999   2.50000E+00
    X0000002  A0000002   1.00000E+00
    X0000002  F0000002  -1.00000E+00
    Y0000011  ZFZF9999   4.30000E+00
    Y0000011  F0000001   1.00000E+00
    Y0000011  D0000001   1.00000E+00
    Y0000012  ZFZF9999   2.00000E+00
    Y0000012  F0000001   1.00000E+00
    Y0000012  D0000002   1.00000E+00
    Y0000013  ZFZF9999   0.50000E+00
    Y0000013  F0000001   1.00000E+00
    Y0000013  D0000003   1.00000E+00
    Y0000021  ZFZF9999   8.70000E+00
    Y0000021  F0000002   1.00000E+00
    Y0000021  D0000001   1.00000E+00
    Y0000022  ZFZF9999   4.00000E+00
    Y0000022  F0000002   1.00000E+00
    Y0000022  D0000002   1.00000E+00
    Y0000023  ZFZF9999   1.00000E+00
    Y0000023  F0000002   1.00000E+00
    Y0000023  D0000003   1.00000E+00
    UD000001  ZFZF9999   1.00000E+01
    UD000001  D0000001   1.00000E+00
    UD000002  ZFZF9999   1.00000E+01
    UD000002  D0000002   1.00000E+00
    UD000003  ZFZF9999   1.00000E+01
    UD000003  D0000003   1.00000E+00
RHS
    RHS       A0000001   1.00000E+03
    RHS       A0000002   1.00000E+03
    RHS       F0000001   0.00000E+00
    RHS       F0000002   0.00000E+00
    RHS       D0000001   1.00000E+03
    RHS       D0000002   1.00000E+03
    RHS       D0000003   1.00000E+03
ENDATA
